% File represents an instance of a Composite Structure problem to be solved by a CP framework
% Created on 2025-03-26 10:41:57.734
T = 50;
n = 36;
m = 60;
edges = [(1, 2),
(7, 8),
(13, 14),
(19, 20),
(25, 26),
(31, 32),
(2, 3),
(8, 9),
(15, 14),
(20, 21),
(26, 27),
(32, 33),
(4, 3),
(10, 9),
(15, 16),
(21, 22),
(27, 28),
(33, 34),
(4, 5),
(11, 10),
(17, 16),
(23, 22),
(28, 29),
(34, 35),
(6, 5),
(12, 11),
(18, 17),
(24, 23),
(30, 29),
(35, 36),
(1, 7),
(13, 7),
(19, 13),
(25, 19),
(31, 25),
(8, 2),
(14, 8),
(20, 14),
(26, 20),
(32, 26),
(9, 3),
(15, 9),
(15, 21),
(27, 21),
(33, 27),
(10, 4),
(16, 10),
(16, 22),
(28, 22),
(34, 28),
(11, 5),
(17, 11),
(17, 23),
(23, 29),
(35, 29),
(12, 6),
(18, 12),
(18, 24),
(24, 30),
(30, 36)];
counts = [|6, 8, 6, 10,
|6, 6, 6, 6,
|4, 6, 4, 6,
|6, 6, 6, 6,
|6, 6, 6, 4,
|6, 6, 6, 10,
|6, 8, 6, 8,
|6, 6, 6, 8,
|6, 6, 6, 6,
|6, 6, 6, 8,
|6, 6, 6, 10,
|8, 6, 8, 12,
|8, 8, 8, 8,
|6, 8, 6, 8,
|6, 8, 6, 10,
|6, 6, 6, 10,
|8, 8, 8, 10,
|8, 10, 8, 14,
|8, 14, 8, 8,
|6, 12, 6, 8,
|6, 8, 6, 8,
|6, 6, 6, 8,
|8, 8, 8, 8,
|8, 8, 8, 14,
|10, 14, 10, 10,
|8, 12, 8, 10,
|8, 8, 8, 8,
|6, 8, 6, 8,
|6, 8, 6, 6,
|8, 8, 8, 8,
|10, 14, 10, 16,
|8, 12, 8, 16,
|8, 8, 8, 14,
|8, 8, 8, 8,
|8, 8, 8, 6,
|8, 8, 8, 2|];
